(set-logic QF_LIA)
(set-info :ran/ran2.smt2)
(set-info :smt-lib-version 2.0)
(declare-fun x1 () Int)
(declare-fun x2 () Int)
(declare-fun x3 () Int)
(declare-fun x4 () Int)
(declare-fun x5 () Int)
(assert (<= (+ (* 8 x1) (* 0 x2) (* (- 3) x3) (* 7 x4) (* (- 6) x5) ) 196))
(assert (<= (+ (* (- 9) x1) (* (- 1) x2) (* 4 x3) (* (- 4) x4) (* (- 4) x5) ) (- 703)))
(assert (<= (+ (* 6 x1) (* 7 x2) (* 10 x3) (* 6 x4) (* 3 x5) ) (- 317)))
(assert (<= (+ (* (- 1) x1) (* 6 x2) (* 3 x3) (* 3 x4) (* 4 x5) ) (- 305)))
(assert (<= (+ (* (- 10) x1) (* (- 5) x2) (* 5 x3) (* 0 x4) (* (- 6) x5) ) (- 208)))
(assert (<= (+ (* 3 x1) (* 10 x2) (* (- 3) x3) (* 8 x4) (* 7 x5) ) (- 252)))
(assert (<= (+ (* (- 9) x1) (* 8 x2) (* 7 x3) (* 3 x4) (* (- 8) x5) ) 316))
(assert (<= (+ (* 0 x1) (* 8 x2) (* 8 x3) (* (- 2) x4) (* 1 x5) ) 626))
(assert (<= (+ (* 9 x1) (* 10 x2) (* (- 8) x3) (* (- 1) x4) (* 1 x5) ) 268))
(assert (<= (+ (* 4 x1) (* (- 1) x2) (* 9 x3) (* (- 2) x4) (* 7 x5) ) (- 479)))
(assert (<= (+ (* 1 x1) (* 0 x2) (* 0 x3) (* 0 x4) (* 0 x5) ) 707))
(assert (<= (+ (* (- 1) x1) (* 0 x2) (* 0 x3) (* 0 x4) (* 0 x5) ) 707))
(assert (<= (+ (* 0 x1) (* 1 x2) (* 0 x3) (* 0 x4) (* 0 x5) ) 707))
(assert (<= (+ (* 0 x1) (* (- 1) x2) (* 0 x3) (* 0 x4) (* 0 x5) ) 707))
(assert (<= (+ (* 0 x1) (* 0 x2) (* 1 x3) (* 0 x4) (* 0 x5) ) 707))
(assert (<= (+ (* 0 x1) (* 0 x2) (* (- 1) x3) (* 0 x4) (* 0 x5) ) 707))
(assert (<= (+ (* 0 x1) (* 0 x2) (* 0 x3) (* 1 x4) (* 0 x5) ) 707))
(assert (<= (+ (* 0 x1) (* 0 x2) (* 0 x3) (* (- 1) x4) (* 0 x5) ) 707))
(assert (<= (+ (* 0 x1) (* 0 x2) (* 0 x3) (* 0 x4) (* 1 x5) ) 707))
(assert (<= (+ (* 0 x1) (* 0 x2) (* 0 x3) (* 0 x4) (* (- 1) x5) ) 707))
